100
100
100
98
97
95
90
90
89
89
87
87
85
83
82
82
81
81
81
80
79
78
77
76
74
73
72
70
70
68
67
64
63
63
60
60
58
58
57
57
55
54
54
53
52
52
52
51
50
50
50
48
45
45
45
44
44
43
41
38
37
34
34
34
33
32
32
31
30
30
30
30
26
25
24
23
20
19
19
19
18
17
16
15
13
12
12
11
11
11
11
10
9
8
8
8
7
4
3
3
2
1
